\ENCODING=ISO-8859-1
\Problem name: IloCplex

Minimize
 obj: 30 p_1 + 3000 y_1 + 3 I_0_1 + 6 I_1_1 + 9 I_2_1 + 7 I_3_1 + 8 I_4_1
      + 30 p_2 + 3000 y_2 + 3 I_0_2 + 6 I_1_2 + 9 I_2_2 + 7 I_3_2 + 8 I_4_2
Subject To
 c1#0:                        x15 + x16  = 1
 Lancement(t.1)#1:            - y_1 + x15 <= 0
 c3#2:                        x17 + x18  = 1
 Lancement(t.2)#3:            - y_2 + x17 <= 0
 Concervation(te1)#4:         p_1 - I_0_1 + I_0_0 - q_0_1 - q_1_1 - q_2_1
                              - q_3_1  = 0
 Concervation(te2)#5:         I_0_1 + p_2 - I_0_2 - q_0_2 - q_1_2 - q_2_2
                              - q_3_2  = 0
 Demande(I.1t.1)#6:           - I_1_1 + q_1_1 + I_1_0  = 100
 Demande(I.1t.2)#7:           I_1_1 - I_1_2 + q_1_2  = 10
 Demande(I.2t.1)#8:           - I_2_1 + q_2_1 + I_2_0  = 150
 Demande(I.2t.2)#9:           I_2_1 - I_2_2 + q_2_2  = 15
 Demande(I.3t.1)#10:          - I_3_1 + q_3_1 + I_3_0  = 200
 Demande(I.3t.2)#11:          I_3_1 - I_3_2 + q_3_2  = 20
 CapaciteFournisseur(t.1)#12: I_0_0 <= 10000000000
 CapaciteFournisseur(t.2)#13: I_0_1 <= 10000000000
 CapaciteClient(I.1;t.1)#14:  q_1_1 + I_1_0 <= 2000
 CapaciteClient(I.1;t.2)#15:  I_1_1 + q_1_2 <= 2000
 CapaciteClient(I.2;t.1)#16:  q_2_1 + I_2_0 <= 4500
 CapaciteClient(I.2;t.2)#17:  I_2_1 + q_2_2 <= 4500
 CapaciteClient(I.3;t.1)#18:  q_3_1 + I_3_0 <= 4500
 CapaciteClient(I.3;t.2)#19:  I_3_1 + q_3_2 <= 4500
 i1: x16 = 1 <-> p_1  = 0
 i2: x18 = 1 <-> p_2  = 0
Bounds
 0 <= p_1 <= 10000000000
 0 <= y_1 <= 1
 0 <= I_0_1 <= 10000000000
 0 <= I_1_1 <= 2000
 0 <= I_2_1 <= 4500
 0 <= I_3_1 <= 4500
 0 <= I_4_1 <= 1400
 0 <= p_2 <= 10000000000
 0 <= y_2 <= 1
 0 <= I_0_2 <= 10000000000
 0 <= I_1_2 <= 2000
 0 <= I_2_2 <= 4500
 0 <= I_3_2 <= 4500
 0 <= I_4_2 <= 1400
 0 <= x15 <= 1
 0 <= x16 <= 1
 0 <= x17 <= 1
 0 <= x18 <= 1
      I_0_0 = 0
 0 <= q_0_1 <= 10000000000
 0 <= q_1_1 <= 10000000000
 0 <= q_2_1 <= 10000000000
 0 <= q_3_1 <= 10000000000
 0 <= q_0_2 <= 10000000000
 0 <= q_1_2 <= 10000000000
 0 <= q_2_2 <= 10000000000
 0 <= q_3_2 <= 10000000000
      I_1_0 = 0
      I_2_0 = 0
      I_3_0 = 0
Binaries
 y_1  y_2  x15  x16  x17  x18 
End
